c CNF file corresponding to a (partial) station packing problem.
p cnf 1097 229
1 2 3 4 5 6 7 8 9 10 11 12 13 14 0
-1 -2 0
-1 -3 0
-1 -4 0
-1 -5 0
-1 -6 0
-1 -7 0
-1 -8 0
-1 -9 0
-1 -10 0
-1 -11 0
-1 -12 0
-1 -13 0
-1 -14 0
-2 -3 0
-2 -4 0
-2 -5 0
-2 -6 0
-2 -7 0
-2 -8 0
-2 -9 0
-2 -10 0
-2 -11 0
-2 -12 0
-2 -13 0
-2 -14 0
-3 -4 0
-3 -5 0
-3 -6 0
-3 -7 0
-3 -8 0
-3 -9 0
-3 -10 0
-3 -11 0
-3 -12 0
-3 -13 0
-3 -14 0
-4 -5 0
-4 -6 0
-4 -7 0
-4 -8 0
-4 -9 0
-4 -10 0
-4 -11 0
-4 -12 0
-4 -13 0
-4 -14 0
-5 -6 0
-5 -7 0
-5 -8 0
-5 -9 0
-5 -10 0
-5 -11 0
-5 -12 0
-5 -13 0
-5 -14 0
-6 -7 0
-6 -8 0
-6 -9 0
-6 -10 0
-6 -11 0
-6 -12 0
-6 -13 0
-6 -14 0
-7 -8 0
-7 -9 0
-7 -10 0
-7 -11 0
-7 -12 0
-7 -13 0
-7 -14 0
-8 -9 0
-8 -10 0
-8 -11 0
-8 -12 0
-8 -13 0
-8 -14 0
-9 -10 0
-9 -11 0
-9 -12 0
-9 -13 0
-9 -14 0
-10 -11 0
-10 -12 0
-10 -13 0
-10 -14 0
-11 -12 0
-11 -13 0
-11 -14 0
-12 -13 0
-12 -14 0
-13 -14 0
1081 1082 1083 1084 1085 1086 1087 1088 1089 1090 1091 1092 1093 1094 1095 1096 1097 0
-1081 -1082 0
-1081 -1083 0
-1081 -1084 0
-1081 -1085 0
-1081 -1086 0
-1081 -1087 0
-1081 -1088 0
-1081 -1089 0
-1081 -1090 0
-1081 -1091 0
-1081 -1092 0
-1081 -1093 0
-1081 -1094 0
-1081 -1095 0
-1081 -1096 0
-1081 -1097 0
-1082 -1083 0
-1082 -1084 0
-1082 -1085 0
-1082 -1086 0
-1082 -1087 0
-1082 -1088 0
-1082 -1089 0
-1082 -1090 0
-1082 -1091 0
-1082 -1092 0
-1082 -1093 0
-1082 -1094 0
-1082 -1095 0
-1082 -1096 0
-1082 -1097 0
-1083 -1084 0
-1083 -1085 0
-1083 -1086 0
-1083 -1087 0
-1083 -1088 0
-1083 -1089 0
-1083 -1090 0
-1083 -1091 0
-1083 -1092 0
-1083 -1093 0
-1083 -1094 0
-1083 -1095 0
-1083 -1096 0
-1083 -1097 0
-1084 -1085 0
-1084 -1086 0
-1084 -1087 0
-1084 -1088 0
-1084 -1089 0
-1084 -1090 0
-1084 -1091 0
-1084 -1092 0
-1084 -1093 0
-1084 -1094 0
-1084 -1095 0
-1084 -1096 0
-1084 -1097 0
-1085 -1086 0
-1085 -1087 0
-1085 -1088 0
-1085 -1089 0
-1085 -1090 0
-1085 -1091 0
-1085 -1092 0
-1085 -1093 0
-1085 -1094 0
-1085 -1095 0
-1085 -1096 0
-1085 -1097 0
-1086 -1087 0
-1086 -1088 0
-1086 -1089 0
-1086 -1090 0
-1086 -1091 0
-1086 -1092 0
-1086 -1093 0
-1086 -1094 0
-1086 -1095 0
-1086 -1096 0
-1086 -1097 0
-1087 -1088 0
-1087 -1089 0
-1087 -1090 0
-1087 -1091 0
-1087 -1092 0
-1087 -1093 0
-1087 -1094 0
-1087 -1095 0
-1087 -1096 0
-1087 -1097 0
-1088 -1089 0
-1088 -1090 0
-1088 -1091 0
-1088 -1092 0
-1088 -1093 0
-1088 -1094 0
-1088 -1095 0
-1088 -1096 0
-1088 -1097 0
-1089 -1090 0
-1089 -1091 0
-1089 -1092 0
-1089 -1093 0
-1089 -1094 0
-1089 -1095 0
-1089 -1096 0
-1089 -1097 0
-1090 -1091 0
-1090 -1092 0
-1090 -1093 0
-1090 -1094 0
-1090 -1095 0
-1090 -1096 0
-1090 -1097 0
-1091 -1092 0
-1091 -1093 0
-1091 -1094 0
-1091 -1095 0
-1091 -1096 0
-1091 -1097 0
-1092 -1093 0
-1092 -1094 0
-1092 -1095 0
-1092 -1096 0
-1092 -1097 0
-1093 -1094 0
-1093 -1095 0
-1093 -1096 0
-1093 -1097 0
-1094 -1095 0
-1094 -1096 0
-1094 -1097 0
-1095 -1096 0
-1095 -1097 0
-1096 -1097 0
